# Solution for model problem_
# Objective value = 1.5995928495669150e+05
x(0_0) 0
x(0_1) 0
x(0_2) 0
x(0_3) 0
x(0_4) 0
x(0_5) 0
x(0_6) 0
x(0_7) 0
x(0_8) 0
x(0_9) 0
x(0_10) 0
x(0_11) 0
x(0_12) 1
x(0_13) 0
x(0_14) 0
x(0_15) 0
x(0_16) 0
x(0_17) 0
x(0_18) 0
x(1_19) 0
x(1_20) 0
x(1_21) 0
x(1_22) 0
x(1_23) 0
x(1_24) 0
x(1_25) 0
x(1_26) 0
x(1_27) 0
x(1_28) 0
x(1_29) 0
x(1_30) 0
x(1_31) 1
x(1_32) 0
x(1_33) 0
x(1_34) 0
x(1_35) 0
x(1_36) 0
x(2_37) 0
x(2_38) 0
x(2_39) 0
x(2_40) 0
x(2_41) 0
x(2_42) 0
x(2_43) 0
x(2_44) 0
x(2_45) 1
x(2_46) 0
x(2_47) 0
x(2_48) 0
x(2_49) 0
x(2_50) 0
x(2_51) 0
x(2_52) 0
x(2_53) 0
x(3_54) 0
x(3_55) 0
x(3_56) 0
x(3_57) 0
x(3_58) 0
x(3_59) 0
x(3_60) 1
x(3_61) 0
x(3_62) 0
x(3_63) 0
x(3_64) 0
x(3_65) 0
x(3_66) 0
x(3_67) 0
x(3_68) 0
x(3_69) 0
x(3_70) 0
x(3_71) 0
x(4_72) 0
x(4_73) 0
x(4_74) 0
x(4_75) 0
x(4_76) 0
x(4_77) 0
x(4_78) 0
x(4_79) 0
x(4_80) 0
x(4_81) 0
x(4_82) 0
x(4_83) 1
x(4_84) 0
x(4_85) 0
x(4_86) 0
x(4_87) 0
x(5_88) 0
x(5_89) 0
x(5_90) 0
x(5_91) 1
x(5_92) 0
x(5_93) 0
x(5_94) 0
x(5_95) 0
x(5_96) 0
x(5_97) 0
x(5_98) 0
x(5_99) 0
x(5_100) 0
x(5_101) 0
x(5_102) 0
x(5_103) 0
x(5_104) 0
x(5_105) 0
x(6_106) 0
x(6_107) 0
x(6_108) 0
x(6_109) 0
x(6_110) 0
x(6_111) 0
x(6_112) 0
x(6_113) 0
x(6_114) 0
x(6_115) 0
x(6_116) 0
x(6_117) 0
x(6_118) 0
x(6_119) 0
x(6_120) 1
x(7_121) 0
x(7_122) 1
x(7_123) 0
x(7_124) 0
x(7_125) 0
x(7_126) 0
x(7_127) 0
x(7_128) 0
x(7_129) 0
x(7_130) 0
x(7_131) 0
x(7_132) 0
x(8_133) 0
x(8_134) 0
x(8_135) 0
x(8_136) 0
x(8_137) 0
x(8_138) 0
x(8_139) 0
x(8_140) 0
x(8_141) 0
x(8_142) 0
x(8_143) 0
x(8_144) 0
x(8_145) 1
x(8_146) 0
x(9_147) 0
x(9_148) 0
x(9_149) 0
x(9_150) 0
x(9_151) 0
x(9_152) 0
x(9_153) 0
x(9_154) 0
x(9_155) 0
x(9_156) 0
x(9_157) 1
x(9_158) 0
x(9_159) 0
x(10_160) 0
x(10_161) 1
x(10_162) 0
x(10_163) 0
x(10_164) 0
x(10_165) 0
x(10_166) 0
x(10_167) 0
x(10_168) 0
x(10_169) 0
x(10_170) 0
x(10_171) 0
x(10_172) 0
x(10_173) 0
x(10_174) 0
x(10_175) 0
x(10_176) 0
x(10_177) 0
x(10_178) 0
x(10_179) 0
x(11_180) 0
x(11_181) 0
x(11_182) 0
x(11_183) 0
x(11_184) 0
x(11_185) 0
x(11_186) 1
x(11_187) 0
x(11_188) 0
x(11_189) 0
x(11_190) 0
x(11_191) 0
x(11_192) 0
x(12_193) 0
x(12_194) 0
x(12_195) 0
x(12_196) 0
x(12_197) 1
x(12_198) 0
x(12_199) 0
x(12_200) 0
x(12_201) 0
x(12_202) 0
x(12_203) 0
x(12_204) 0
x(12_205) 0
x(12_206) 0
x(12_207) 0
x(12_208) 0
x(12_209) 0
x(13_210) 0
x(13_211) 0
x(13_212) 0
x(13_213) 0
x(13_214) 0
x(13_215) 0
x(13_216) 0
x(13_217) 0
x(13_218) 0
x(13_219) 0
x(13_220) 0
x(13_221) 0
x(13_222) 0
x(13_223) 0
x(13_224) 0
x(13_225) 1
x(13_226) 0
x(13_227) 0
x(13_228) 0
x(14_229) 0
x(14_230) 0
x(14_231) 0
x(14_232) 0
x(14_233) 0
x(14_234) 0
x(14_235) 0
x(14_236) 0
x(14_237) 0
x(14_238) 0
x(14_239) 0
x(14_240) 0
x(14_241) 0
x(14_242) 0
x(14_243) 1
x(14_244) 0
x(14_245) 0
x(14_246) 0
x(14_247) 0
x(14_248) 0
x(15_249) 0
x(15_250) 0
x(15_251) 0
x(15_252) 0
x(15_253) 0
x(15_254) 0
x(15_255) 0
x(15_256) 0
x(15_257) 0
x(15_258) 1
x(15_259) 0
x(15_260) 0
x(15_261) 0
x(15_262) 0
x(15_263) 0
x(15_264) 0
x(15_265) 0
x(15_266) 0
x(16_267) 0
x(16_268) 0
x(16_269) 0
x(16_270) 0
x(16_271) 0
x(16_272) 1
x(16_273) 0
x(16_274) 0
x(16_275) 0
x(16_276) 0
x(16_277) 0
x(16_278) 0
x(16_279) 0
x(16_280) 0
x(16_281) 0
x(16_282) 0
x(16_283) 0
x(17_284) 0
x(17_285) 0
x(17_286) 0
x(17_287) 0
x(17_288) 0
x(17_289) 0
x(17_290) 0
x(17_291) 0
x(17_292) 0
x(17_293) 0
x(17_294) 0
x(17_295) 0
x(17_296) 0
x(17_297) 1
x(17_298) 0
x(17_299) 0
x(17_300) 0
x(17_301) 0
x(17_302) 0
x(18_303) 0
x(18_304) 0
x(18_305) 0
x(18_306) 0
x(18_307) 0
x(18_308) 0
x(18_309) 0
x(18_310) 0
x(18_311) 0
x(18_312) 1
x(18_313) 0
x(18_314) 0
x(18_315) 0
x(18_316) 0
x(18_317) 0
x(19_318) 0
x(19_319) 0
x(19_320) 0
x(19_321) 0
x(19_322) 0
x(19_323) 0
x(19_324) 0
x(19_325) 0
x(19_326) 0
x(19_327) 0
x(19_328) 0
x(19_329) 0
x(19_330) 0
x(19_331) 0
x(19_332) 0
x(19_333) 0
x(19_334) 1
x(19_335) 0
x(20_336) 0
x(20_337) 0
x(20_338) 1
x(20_339) 0
x(20_340) 0
x(20_341) 0
x(20_342) 0
x(20_343) 0
x(20_344) 0
x(20_345) 0
x(20_346) 0
x(20_347) 0
x(20_348) 0
x(20_349) 0
x(20_350) 0
x(20_351) 0
x(20_352) 0
x(21_353) 0
x(21_354) 0
x(21_355) 0
x(21_356) 0
x(21_357) 0
x(21_358) 0
x(21_359) 0
x(21_360) 0
x(21_361) 0
x(21_362) 0
x(21_363) 0
x(21_364) 0
x(21_365) 1
x(21_366) 0
x(21_367) 0
x(21_368) 0
x(21_369) 0
x(21_370) 0
x(21_371) 0
x(21_372) 0
x(22_373) 0
x(22_374) 0
x(22_375) 0
x(22_376) 0
x(22_377) 0
x(22_378) 0
x(22_379) 0
x(22_380) 0
x(22_381) 0
x(22_382) 0
x(22_383) 0
x(22_384) 1
x(22_385) 0
x(22_386) 0
x(22_387) 0
x(23_388) 0
x(23_389) 0
x(23_390) 0
x(23_391) 0
x(23_392) 0
x(23_393) 0
x(23_394) 0
x(23_395) 0
x(23_396) 0
x(23_397) 1
x(23_398) 0
x(24_399) 0
x(24_400) 0
x(24_401) 0
x(24_402) 0
x(24_403) 0
x(24_404) 0
x(24_405) 0
x(24_406) 0
x(24_407) 0
x(24_408) 0
x(24_409) 0
x(24_410) 0
x(24_411) 1
x(24_412) 0
x(25_413) 0
x(25_414) 0
x(25_415) 0
x(25_416) 1
x(25_417) 0
x(25_418) 0
x(25_419) 0
x(25_420) 0
x(25_421) 0
x(25_422) 0
x(25_423) 0
x(25_424) 0
x(25_425) 0
x(25_426) 0
x(25_427) 0
x(25_428) 0
x(25_429) 0
x(26_430) 0
x(26_431) 0
x(26_432) 0
x(26_433) 0
x(26_434) 0
x(26_435) 0
x(26_436) 0
x(26_437) 0
x(26_438) 0
x(26_439) 0
x(26_440) 0
x(26_441) 0
x(26_442) 0
x(26_443) 1
x(27_444) 1
x(27_445) 0
x(27_446) 0
x(27_447) 0
x(27_448) 0
x(27_449) 0
x(27_450) 0
x(27_451) 0
x(27_452) 0
x(27_453) 0
x(27_454) 0
x(27_455) 0
x(27_456) 0
x(27_457) 0
x(27_458) 0
x(28_459) 0
x(28_460) 1
x(28_461) 0
x(28_462) 0
x(28_463) 0
x(28_464) 0
x(28_465) 0
x(28_466) 0
x(28_467) 0
x(28_468) 0
x(29_469) 0
x(29_470) 0
x(29_471) 0
x(29_472) 0
x(29_473) 0
x(29_474) 0
x(29_475) 0
x(29_476) 1
x(29_477) 0
x(29_478) 0
x(29_479) 0
x(29_480) 0
x(29_481) 0
x(30_482) 0
x(30_483) 0
x(30_484) 0
x(30_485) 1
x(30_486) 0
x(30_487) 0
x(30_488) 0
x(30_489) 0
x(30_490) 0
x(30_491) 0
x(30_492) 0
x(30_493) 0
x(30_494) 0
x(30_495) 0
x(30_496) 0
x(30_497) 0
x(30_498) 0
x(31_499) 0
x(31_500) 0
x(31_501) 0
x(31_502) 0
x(31_503) 0
x(31_504) 0
x(31_505) 0
x(31_506) 0
x(31_507) 0
x(31_508) 0
x(31_509) 0
x(31_510) 1
x(31_511) 0
x(31_512) 0
x(31_513) 0
x(31_514) 0
x(31_515) 0
x(31_516) 0
x(31_517) 0
x(32_518) 0
x(32_519) 0
x(32_520) 0
x(32_521) 0
x(32_522) 0
x(32_523) 0
x(32_524) 0
x(32_525) 0
x(32_526) 0
x(32_527) 0
x(32_528) 0
x(32_529) 1
x(32_530) 0
x(32_531) 0
x(33_532) 0
x(33_533) 0
x(33_534) 0
x(33_535) 0
x(33_536) 0
x(33_537) 0
x(33_538) 0
x(33_539) 0
x(33_540) 0
x(33_541) 0
x(33_542) 0
x(33_543) 0
x(33_544) 1
x(33_545) 0
x(34_546) 0
x(34_547) 0
x(34_548) 0
x(34_549) 0
x(34_550) 0
x(34_551) 0
x(34_552) 0
x(34_553) 0
x(34_554) 0
x(34_555) 0
x(34_556) 0
x(34_557) 0
x(34_558) 0
x(34_559) 0
x(34_560) 0
x(34_561) 0
x(34_562) 1
x(35_563) 0
x(35_564) 0
x(35_565) 0
x(35_566) 0
x(35_567) 0
x(35_568) 0
x(35_569) 0
x(35_570) 0
x(35_571) 0
x(35_572) 0
x(35_573) 0
x(35_574) 1
x(35_575) 0
x(35_576) 0
x(36_577) 0
x(36_578) 0
x(36_579) 0
x(36_580) 0
x(36_581) 0
x(36_582) 0
x(36_583) 0
x(36_584) 0
x(36_585) 0
x(36_586) 0
x(36_587) 0
x(36_588) 1
x(36_589) 0
x(36_590) 0
x(37_591) 0
x(37_592) 0
x(37_593) 0
x(37_594) 0
x(37_595) 0
x(37_596) 0
x(37_597) 0
x(37_598) 0
x(37_599) 0
x(37_600) 0
x(37_601) 0
x(37_602) 0
x(37_603) 1
x(37_604) 0
x(38_605) 0
x(38_606) 0
x(38_607) 0
x(38_608) 0
x(38_609) 0
x(38_610) 0
x(38_611) 0
x(38_612) 0
x(38_613) 0
x(38_614) 0
x(38_615) 0
x(38_616) 0
x(38_617) 0
x(38_618) 1
x(38_619) 0
x(38_620) 0
x(39_621) 0
x(39_622) 0
x(39_623) 0
x(39_624) 0
x(39_625) 0
x(39_626) 0
x(39_627) 0
x(39_628) 1
x(39_629) 0
x(39_630) 0
x(40_631) 0
x(40_632) 0
x(40_633) 0
x(40_634) 0
x(40_635) 0
x(40_636) 0
x(40_637) 0
x(40_638) 1
x(40_639) 0
x(40_640) 0
x(40_641) 0
x(40_642) 0
x(40_643) 0
x(40_644) 0
x(40_645) 0
x(40_646) 0
x(40_647) 0
x(40_648) 0
x(40_649) 0
x(40_650) 0
x(41_651) 1
x(41_652) 0
x(41_653) 0
x(41_654) 0
x(41_655) 0
x(41_656) 0
x(41_657) 0
x(41_658) 0
x(41_659) 0
x(41_660) 0
x(41_661) 0
x(41_662) 0
x(41_663) 0
x(42_664) 0
x(42_665) 0
x(42_666) 0
x(42_667) 0
x(42_668) 0
x(42_669) 0
x(42_670) 0
x(42_671) 0
x(42_672) 0
x(42_673) 0
x(42_674) 1
x(42_675) 0
x(42_676) 0
x(43_677) 0
x(43_678) 0
x(43_679) 1
x(43_680) 0
x(43_681) 0
x(43_682) 0
x(43_683) 0
x(43_684) 0
x(43_685) 0
x(43_686) 0
x(43_687) 0
x(43_688) 0
x(43_689) 0
x(43_690) 0
x(43_691) 0
x(43_692) 0
x(43_693) 0
x(44_694) 0
x(44_695) 0
x(44_696) 0
x(44_697) 0
x(44_698) 1
x(44_699) 0
x(44_700) 0
x(44_701) 0
x(44_702) 0
x(44_703) 0
x(44_704) 0
x(45_705) 0
x(45_706) 1
x(45_707) 0
x(45_708) 0
x(45_709) 0
x(45_710) 0
x(45_711) 0
x(45_712) 0
x(45_713) 0
x(45_714) 0
x(45_715) 0
x(46_716) 0
x(46_717) 0
x(46_718) 1
x(46_719) 0
x(46_720) 0
x(46_721) 0
x(46_722) 0
x(46_723) 0
x(46_724) 0
x(46_725) 0
x(46_726) 0
x(47_727) 0
x(47_728) 1
x(47_729) 0
x(47_730) 0
x(47_731) 0
x(47_732) 0
x(47_733) 0
x(47_734) 0
x(47_735) 0
x(47_736) 0
x(47_737) 0
x(47_738) 0
x(47_739) 0
x(47_740) 0
x(48_741) 0
x(48_742) 1
x(48_743) 0
x(48_744) 0
x(48_745) 0
x(48_746) 0
x(48_747) 0
x(48_748) 0
x(48_749) 0
x(48_750) 0
x(48_751) 0
x(48_752) 0
x(48_753) 0
x(48_754) 0
x(49_755) 0
x(49_756) 0
x(49_757) 0
x(49_758) 0
x(49_759) 0
x(49_760) 0
x(49_761) 0
x(49_762) 0
x(49_763) 0
x(49_764) 0
x(49_765) 0
x(49_766) 1
x(49_767) 0
x(49_768) 0
x(50_769) 0
x(50_770) 0
x(50_771) 0
x(50_772) 0
x(50_773) 0
x(50_774) 0
x(50_775) 0
x(50_776) 0
x(50_777) 0
x(50_778) 0
x(50_779) 1
x(50_780) 0
x(51_781) 0
x(51_782) 0
x(51_783) 0
x(51_784) 0
x(51_785) 0
x(51_786) 0
x(51_787) 1
x(51_788) 0
x(51_789) 0
x(51_790) 0
x(51_791) 0
x(51_792) 0
x(51_793) 0
x(51_794) 0
x(51_795) 0
x(51_796) 0
x(51_797) 0
x(51_798) 0
x(51_799) 0
x(52_800) 0
x(52_801) 0
x(52_802) 0
x(52_803) 0
x(52_804) 0
x(52_805) 0
x(52_806) 1
x(52_807) 0
x(52_808) 0
x(52_809) 0
x(52_810) 0
x(52_811) 0
x(52_812) 0
x(52_813) 0
x(52_814) 0
x(52_815) 0
x(53_816) 0
x(53_817) 0
x(53_818) 0
x(53_819) 0
x(53_820) 0
x(53_821) 0
x(53_822) 0
x(53_823) 0
x(53_824) 0
x(53_825) 0
x(53_826) 0
x(53_827) 0
x(53_828) 0
x(53_829) 1
x(54_830) 0
x(54_831) 0
x(54_832) 0
x(54_833) 0
x(54_834) 0
x(54_835) 0
x(54_836) 0
x(54_837) 0
x(54_838) 0
x(54_839) 0
x(54_840) 0
x(54_841) 1
x(54_842) 0
x(54_843) 0
x(54_844) 0
x(54_845) 0
x(54_846) 0
x(55_847) 1
x(55_848) 0
x(55_849) 0
x(55_850) 0
x(55_851) 0
x(55_852) 0
x(55_853) 0
x(55_854) 0
x(55_855) 0
x(55_856) 0
x(55_857) 0
x(56_858) 0
x(56_859) 0
x(56_860) 0
x(56_861) 0
x(56_862) 0
x(56_863) 0
x(56_864) 0
x(56_865) 0
x(56_866) 1
x(56_867) 0
x(57_868) 0
x(57_869) 0
x(57_870) 0
x(57_871) 0
x(57_872) 0
x(57_873) 0
x(57_874) 0
x(57_875) 0
x(57_876) 0
x(57_877) 1
x(57_878) 0
x(57_879) 0
x(57_880) 0
x(57_881) 0
x(58_882) 0
x(58_883) 0
x(58_884) 0
x(58_885) 0
x(58_886) 0
x(58_887) 0
x(58_888) 0
x(58_889) 0
x(58_890) 0
x(58_891) 0
x(58_892) 0
x(58_893) 0
x(58_894) 0
x(58_895) 0
x(58_896) 0
x(58_897) 0
x(58_898) 1
x(58_899) 0
x(59_900) 0
x(59_901) 0
x(59_902) 0
x(59_903) 0
x(59_904) 0
x(59_905) 0
x(59_906) 0
x(59_907) 0
x(59_908) 0
x(59_909) 0
x(59_910) 0
x(59_911) 0
x(59_912) 1
x(60_913) 0
x(60_914) 0
x(60_915) 0
x(60_916) 0
x(60_917) 0
x(60_918) 0
x(60_919) 0
x(60_920) 0
x(60_921) 0
x(60_922) 0
x(60_923) 0
x(60_924) 0
x(60_925) 0
x(60_926) 0
x(60_927) 0
x(60_928) 0
x(60_929) 1
x(61_930) 0
x(61_931) 0
x(61_932) 0
x(61_933) 0
x(61_934) 0
x(61_935) 0
x(61_936) 0
x(61_937) 0
x(61_938) 0
x(61_939) 0
x(61_940) 0
x(61_941) 0
x(61_942) 1
x(61_943) 0
x(62_944) 0
x(62_945) 0
x(62_946) 0
x(62_947) 0
x(62_948) 0
x(62_949) 0
x(62_950) 0
x(62_951) 0
x(62_952) 0
x(62_953) 1
x(62_954) 0
x(62_955) 0
x(62_956) 0
x(62_957) 0
x(62_958) 0
x(62_959) 0
x(63_960) 0
x(63_961) 0
x(63_962) 0
x(63_963) 0
x(63_964) 0
x(63_965) 0
x(63_966) 0
x(63_967) 0
x(63_968) 0
x(63_969) 0
x(63_970) 0
x(63_971) 0
x(63_972) 0
x(63_973) 0
x(63_974) 1
x(63_975) 0
x(64_976) 0
x(64_977) 0
x(64_978) 0
x(64_979) 0
x(64_980) 0
x(64_981) 0
x(64_982) 1
x(64_983) 0
x(64_984) 0
x(64_985) 0
x(64_986) 0
x(64_987) 0
x(64_988) 0
x(64_989) 0
x(64_990) 0
x(65_991) 0
x(65_992) 1
x(65_993) 0
x(65_994) 0
x(65_995) 0
x(65_996) 0
x(65_997) 0
x(65_998) 0
x(65_999) 0
x(65_1000) 0
x(66_1001) 0
x(66_1002) 0
x(66_1003) 0
x(66_1004) 0
x(66_1005) 0
x(66_1006) 0
x(66_1007) 0
x(66_1008) 0
x(66_1009) 0
x(66_1010) 1
x(66_1011) 0
x(66_1012) 0
x(66_1013) 0
x(67_1014) 0
x(67_1015) 0
x(67_1016) 0
x(67_1017) 0
x(67_1018) 0
x(67_1019) 0
x(67_1020) 0
x(67_1021) 0
x(67_1022) 0
x(67_1023) 0
x(67_1024) 0
x(67_1025) 0
x(67_1026) 0
x(67_1027) 0
x(67_1028) 0
x(67_1029) 1
x(67_1030) 0
x(67_1031) 0
x(68_1032) 0
x(68_1033) 0
x(68_1034) 0
x(68_1035) 0
x(68_1036) 0
x(68_1037) 0
x(68_1038) 0
x(68_1039) 0
x(68_1040) 0
x(68_1041) 0
x(68_1042) 0
x(68_1043) 0
x(68_1044) 0
x(68_1045) 1
x(68_1046) 0
x(68_1047) 0
x(69_1048) 0
x(69_1049) 0
x(69_1050) 0
x(69_1051) 0
x(69_1052) 0
x(69_1053) 0
x(69_1054) 0
x(69_1055) 0
x(69_1056) 0
x(69_1057) 0
x(69_1058) 0
x(69_1059) 0
x(69_1060) 0
x(69_1061) 1
x(70_1062) 0
x(70_1063) 0
x(70_1064) 1
x(70_1065) 0
x(70_1066) 0
x(70_1067) 0
x(70_1068) 0
x(70_1069) 0
x(70_1070) 0
x(70_1071) 0
x(70_1072) 0
x(70_1073) 0
x(70_1074) 0
x(71_1075) 1
x(71_1076) 0
x(71_1077) 0
x(71_1078) 0
x(71_1079) 0
x(71_1080) 0
x(71_1081) 0
x(71_1082) 0
x(71_1083) 0
x(71_1084) 0
x(72_1085) 0
x(72_1086) 0
x(72_1087) 0
x(72_1088) 0
x(72_1089) 0
x(72_1090) 0
x(72_1091) 0
x(72_1092) 0
x(72_1093) 0
x(72_1094) 0
x(72_1095) 0
x(72_1096) 0
x(72_1097) 0
x(72_1098) 0
x(72_1099) 1
x(72_1100) 0
x(72_1101) 0
x(72_1102) 0
x(72_1103) 0
x(73_1104) 0
x(73_1105) 1
x(73_1106) 0
x(73_1107) 0
x(73_1108) 0
x(73_1109) 0
x(73_1110) 0
x(73_1111) 0
x(73_1112) 0
x(73_1113) 0
x(73_1114) 0
x(73_1115) 0
x(73_1116) 0
x(74_1117) 0
x(74_1118) 0
x(74_1119) 0
x(74_1120) 0
x(74_1121) 0
x(74_1122) 0
x(74_1123) 0
x(74_1124) 0
x(74_1125) 1
x(74_1126) 0
x(74_1127) 0
x(74_1128) 0
x(74_1129) 0
x(74_1130) 0
x(75_1131) 0
x(75_1132) 0
x(75_1133) 0
x(75_1134) 0
x(75_1135) 0
x(75_1136) 0
x(75_1137) 0
x(75_1138) 1
x(75_1139) 0
x(75_1140) 0
x(76_1141) 0
x(76_1142) 0
x(76_1143) 0
x(76_1144) 0
x(76_1145) 0
x(76_1146) 0
x(76_1147) 0
x(76_1148) 1
x(76_1149) 0
x(76_1150) 0
x(76_1151) 0
x(76_1152) 0
x(76_1153) 0
x(77_1154) 0
x(77_1155) 0
x(77_1156) 0
x(77_1157) 0
x(77_1158) 0
x(77_1159) 0
x(77_1160) 0
x(77_1161) 0
x(77_1162) 0
x(77_1163) 0
x(77_1164) 0
x(77_1165) 0
x(77_1166) 0
x(77_1167) 0
x(77_1168) 1
x(78_1169) 0
x(78_1170) 0
x(78_1171) 0
x(78_1172) 0
x(78_1173) 0
x(78_1174) 0
x(78_1175) 0
x(78_1176) 0
x(78_1177) 0
x(78_1178) 0
x(78_1179) 0
x(78_1180) 0
x(78_1181) 0
x(78_1182) 0
x(78_1183) 0
x(78_1184) 0
x(78_1185) 1
x(79_1186) 0
x(79_1187) 0
x(79_1188) 0
x(79_1189) 0
x(79_1190) 0
x(79_1191) 0
x(79_1192) 0
x(79_1193) 0
x(79_1194) 0
x(79_1195) 0
x(79_1196) 0
x(79_1197) 0
x(79_1198) 0
x(79_1199) 0
x(79_1200) 0
x(79_1201) 0
x(79_1202) 1
x(80_1203) 0
x(80_1204) 0
x(80_1205) 0
x(80_1206) 0
x(80_1207) 0
x(80_1208) 0
x(80_1209) 0
x(80_1210) 0
x(80_1211) 0
x(80_1212) 0
x(80_1213) 0
x(80_1214) 1
x(80_1215) 0
x(80_1216) 0
x(80_1217) 0
x(80_1218) 0
x(80_1219) 0
x(81_1220) 0
x(81_1221) 0
x(81_1222) 0
x(81_1223) 0
x(81_1224) 0
x(81_1225) 1
x(81_1226) 0
x(81_1227) 0
x(81_1228) 0
x(81_1229) 0
x(82_1230) 0
x(82_1231) 0
x(82_1232) 0
x(82_1233) 0
x(82_1234) 0
x(82_1235) 0
x(82_1236) 1
x(82_1237) 0
x(82_1238) 0
x(82_1239) 0
x(82_1240) 0
x(82_1241) 0
x(82_1242) 0
x(82_1243) 0
x(82_1244) 0
x(82_1245) 0
x(82_1246) 0
x(82_1247) 0
x(82_1248) 0
x(83_1249) 0
x(83_1250) 0
x(83_1251) 0
x(83_1252) 0
x(83_1253) 0
x(83_1254) 0
x(83_1255) 0
x(83_1256) 1
x(83_1257) 0
x(83_1258) 0
x(83_1259) 0
x(84_1260) 0
x(84_1261) 0
x(84_1262) 0
x(84_1263) 1
x(84_1264) 0
x(84_1265) 0
x(84_1266) 0
x(84_1267) 0
x(84_1268) 0
x(84_1269) 0
x(84_1270) 0
x(84_1271) 0
x_1_0 3.3431940647494048e+02
s_1_0 0
z_1_0 9.9665680593525052e-01
x_1_1 3.3546028344238584e+02
s_1_1 0
z_1_1 9.9664539716557610e-01
x_1_2 3.3102484385295247e+02
s_1_2 0
z_1_2 9.9668975156147044e-01
x_1_3 0
s_1_3 1.4706113059437484e+00
z_1_3 1
x_1_4 3.3352980765432585e+02
s_1_4 0
z_1_4 9.9666470192345669e-01
x_1_5 4.9999396344426619e+04
s_1_5 5.0000603655573388e+04
z_1_5 5.0000603655573383e-01
x_1_6 3.3293000824004412e+02
s_1_6 0
z_1_6 9.9667069991759949e-01
x_1_7 0
s_1_7 9.2607024012249894e-01
z_1_7 1
x_1_8 0
s_1_8 1.1185649212020508e+00
z_1_8 1
x_1_9 0
s_1_9 1.2115513419266790e+00
z_1_9 1
x_1_10 0
s_1_10 9.9270223229541443e-01
z_1_10 1
x_1_11 0
s_1_11 1.0443584046442993e+00
z_1_11 1
x_1_12 3.3423164960183203e+02
s_1_12 0
z_1_12 9.9665768350398165e-01
x_1_13 3.3535665201768279e+02
s_1_13 0
z_1_13 9.9664643347982318e-01
x_1_14 0
s_1_14 1.0386062352190493e+00
z_1_14 1
x_1_15 0
s_1_15 1.8482457204809180e+00
z_1_15 1
x_1_16 0
s_1_16 1.6863939024624415e+00
z_1_16 1
x_1_17 3.3573910778293794e+02
s_1_17 0
z_1_17 9.9664260892217060e-01
x_1_18 3.3204071444272995e+02
s_1_18 0
z_1_18 9.9667959285557273e-01
x_1_19 335.011282765292
s_1_19 0
z_1_19 0.996649887172347
x_1_20 0
s_1_20 1.2188625476555899e+00
z_1_20 1
x_1_21 0
s_1_21 1.4163126143539557e+00
z_1_21 1
x_1_22 3.3464966261573136e+02
s_1_22 0
z_1_22 9.9665350337384273e-01
x_1_23 0
s_1_23 1.0111725737369852e+00
z_1_23 1
x_1_24 3.3426890008023474e+02
s_1_24 0
z_1_24 9.9665731099919763e-01
x_1_25 0
s_1_25 5.0870172370923683e-01
z_1_25 1
x_1_26 4.9999704226387163e+04
s_1_26 5.0000295773612830e+04
z_1_26 5.0000295773612835e-01
x_1_27 0
s_1_27 1.4753735156409675e+00
z_1_27 1
x_1_28 0
s_1_28 1.4386260687097092e+00
z_1_28 1
x_1_29 3.3234577713931503e+02
s_1_29 0
z_1_29 9.9667654222860691e-01
x_1_30 0
s_1_30 9.4300381356151775e-01
z_1_30 1
x_1_31 4.9999366477345255e+04
s_1_31 5.0000633522654753e+04
z_1_31 5.0000633522654747e-01
x_1_32 3.3138871085643768e+02
s_1_32 0
z_1_32 9.9668611289143560e-01
x_1_33 0
s_1_33 6.1705290360259824e-01
z_1_33 1
x_1_34 3.3320468847872689e+02
s_1_34 0
z_1_34 9.9666795311521272e-01
x_1_35 0
s_1_35 1.3716155841830187e+00
z_1_35 1
x_1_36 3.3379034316817706e+02
s_1_36 0
z_1_36 9.9666209656831817e-01
x_1_37 3.3008037332679669e+02
s_1_37 0
z_1_37 9.9669919626673209e-01
x_1_38 3.3133496139339695e+02
s_1_38 0
z_1_38 9.9668665038606608e-01
x_1_39 0
s_1_39 1.4264510218927171e+00
z_1_39 1
x_1_40 4.9999310247370362e+04
s_1_40 5.0000689752629638e+04
z_1_40 5.0000689752629635e-01
x_1_41 0
s_1_41 1.0293218977749348e+00
z_1_41 1
x_1_42 3.3138526060619915e+02
s_1_42 0
z_1_42 0.996686147393938
x_1_43 3.3285971879214048e+02
s_1_43 0
z_1_43 9.9667140281207856e-01
x_1_44 0
s_1_44 9.8476511507760733e-01
z_1_44 1
x_1_45 3.2922603649298253e+02
s_1_45 0
z_1_45 9.9670773963507020e-01
x_1_46 3.3426034694073314e+02
s_1_46 0
z_1_46 9.9665739653059271e-01
x_1_47 3.3429764126148075e+02
s_1_47 0
z_1_47 9.9665702358738517e-01
x_1_48 3.3145939826035465e+02
s_1_48 0
z_1_48 9.9668540601739641e-01
x_1_49 3.3568996820600296e+02
s_1_49 0
z_1_49 0.99664310031794
x_1_50 3.3344747286476195e+02
s_1_50 0
z_1_50 9.9666552527135244e-01
x_1_51 0
s_1_51 1.46230416646722
z_1_51 1
x_1_52 3.3286964777206595e+02
s_1_52 0
z_1_52 9.9667130352227939e-01
x_1_53 4.9999305491412160e+04
s_1_53 5.0000694508587840e+04
z_1_53 5.0000694508587840e-01
x_1_54 3.3201519918572740e+02
s_1_54 0
z_1_54 9.9667984800814269e-01
x_1_55 3.2424983662554587e+02
s_1_55 0
z_1_55 9.9675750163374455e-01
x_1_56 3.3031053696804156e+02
s_1_56 0
z_1_56 9.9669689463031952e-01
x_1_57 0
s_1_57 1.3574737866583746e+00
z_1_57 1
x_1_58 3.3202637980133295e+02
s_1_58 0
z_1_58 9.9667973620198669e-01
x_1_59 0
s_1_59 1.2391334953135811e+00
z_1_59 1
x_1_60 3.3569650242663920e+02
s_1_60 0
z_1_60 9.9664303497573359e-01
x_1_61 0
s_1_61 7.7415839183595381e-01
z_1_61 1
x_1_62 3.3485545208863914e+02
s_1_62 0
z_1_62 9.9665144547911355e-01
x_1_63 0
s_1_63 1.1999104610367795e+00
z_1_63 1
x_1_64 0
s_1_64 1.1312333547466551e+00
z_1_64 1
x_1_65 3.3317162486726011e+02
s_1_65 0
z_1_65 9.9666828375132743e-01
x_1_66 3.3164385680202395e+02
s_1_66 0
z_1_66 9.9668356143197978e-01
x_1_67 3.3121533703338355e+02
s_1_67 0
z_1_67 9.9668784662966614e-01
x_1_68 3.3078152077691630e+02
s_1_68 0
z_1_68 9.9669218479223087e-01
x_1_69 3.3288051356188953e+02
s_1_69 0
z_1_69 9.9667119486438116e-01
x_1_70 4.9999385379224026e+04
s_1_70 5.0000614620775974e+04
z_1_70 5.0000614620775974e-01
x_1_71 3.3521655099280179e+02
s_1_71 0
z_1_71 0.996647834490072
x_1_72 0
s_1_72 6.3161912665236741e-01
z_1_72 1
x_1_73 3.3545838588383049e+02
s_1_73 0
z_1_73 9.9664541614116164e-01
x_1_74 3.3544361433664744e+02
s_1_74 0
z_1_74 9.9664556385663350e-01
x_1_75 3.3545668955685687e+02
s_1_75 0
z_1_75 9.9664543310443143e-01
x_1_76 0
s_1_76 1.2508903365232982e+00
z_1_76 1
x_1_77 0
s_1_77 1.0869062479468994e+00
z_1_77 1
x_1_78 0
s_1_78 9.3728810449829325e-01
z_1_78 1
x_1_79 3.3091084770043381e+02
s_1_79 0
z_1_79 9.9669089152299561e-01
x_1_80 0
s_1_80 1.6692223779391497e+00
z_1_80 1
x_1_81 0
s_1_81 1.1012583894189447e+00
z_1_81 1
x_1_82 0
s_1_82 1.2938972099291277e+00
z_1_82 1
x_1_83 0
s_1_83 1.0359699444088619e+00
z_1_83 1
x_1_84 0
s_1_84 1.0543071113934275e+00
z_1_84 1
x_1_85 0
s_1_85 1.1523110861598980e+00
z_1_85 1
x_1_86 3.3207533358782530e+02
s_1_86 0
z_1_86 9.9667924666412178e-01
x_1_87 3.3255242252163589e+02
s_1_87 0
z_1_87 9.9667447577478363e-01
x_1_88 3.3444728055456653e+02
s_1_88 0
z_1_88 9.9665552719445438e-01
x_1_89 0
s_1_89 3.4535252932255389e-01
z_1_89 1
x_1_90 0
s_1_90 9.5459421772102360e-01
z_1_90 1
x_1_91 0
s_1_91 1.2047071119068278e+00
z_1_91 1
x_1_92 3.3221732128060830e+02
s_1_92 0
z_1_92 9.9667782678719385e-01
x_1_93 3.3322456302026694e+02
s_1_93 0
z_1_93 9.9666775436979727e-01
x_1_94 3.3353499926091172e+02
s_1_94 0
z_1_94 9.9666465000739091e-01
x_1_95 3.3498727087676525e+02
s_1_95 0
z_1_95 9.9665012729123237e-01
x_1_96 3.2719984317198396e+02
s_1_96 0
z_1_96 9.9672800156828023e-01
x_1_97 4.9999680256364489e+04
s_1_97 5.0000319743635511e+04
z_1_97 5.0000319743635513e-01
x_1_98 0
s_1_98 1.2871254878118634e+00
z_1_98 1
x_1_99 3.3080978051664715e+02
s_1_99 0
z_1_99 9.9669190219483350e-01
x_1_100 3.3235108086744731e+02
s_1_100 0
z_1_100 9.9667648919132545e-01
x_1_101 3.3287145742215216e+02
s_1_101 0
z_1_101 9.9667128542577843e-01
x_1_102 3.3481484029068088e+02
s_1_102 0
z_1_102 9.9665185159709313e-01
x_1_103 0
s_1_103 5.0411312338837888e-01
z_1_103 1
x_1_104 3.3370484396630491e+02
s_1_104 0
z_1_104 0.996662951560337
x_1_105 3.3157512442210282e+02
s_1_105 0
z_1_105 0.996684248755779
x_1_106 0
s_1_106 7.6265453416999662e-01
z_1_106 1
x_1_107 4.9999573509908638e+04
s_1_107 5.0000426490091362e+04
z_1_107 5.0000426490091365e-01
x_1_108 4.9999364454117625e+04
s_1_108 5.0000635545882375e+04
z_1_108 5.0000635545882377e-01
x_1_109 0
s_1_109 7.4718744712299667e-01
z_1_109 1
x_1_110 332.301901597064
s_1_110 0
z_1_110 9.9667698098402935e-01
x_1_111 3.3056735248956829e+02
s_1_111 0
z_1_111 9.9669432647510425e-01
x_1_112 0
s_1_112 1.0969876328999817e+00
z_1_112 1
x_1_113 3.3280871663718426e+02
s_1_113 0
z_1_113 9.9667191283362810e-01
x_1_114 0
s_1_114 9.1413314438250381e-01
z_1_114 1
x_1_115 3.3123901357315481e+02
s_1_115 0
z_1_115 9.9668760986426852e-01
x_1_116 0
s_1_116 8.1241331345518120e-01
z_1_116 1
x_1_117 3.3091174523532391e+02
s_1_117 0
z_1_117 9.9669088254764671e-01
x_1_118 3.3251288793815183e+02
s_1_118 0
z_1_118 9.9667487112061848e-01
x_1_119 3.3268912055506371e+02
s_1_119 0
z_1_119 9.9667310879444937e-01
x_1_120 3.3074032370373607e+02
s_1_120 0
z_1_120 9.9669259676296262e-01
x_1_121 3.3368646533974970e+02
s_1_121 0
z_1_121 9.9666313534660256e-01
x_1_122 0
s_1_122 1.3634262537234463e+00
z_1_122 1
x_1_123 3.3351936333160847e+02
s_1_123 0
z_1_123 0.996664806366684
x_1_124 0
s_1_124 1.8032920315163210e+00
z_1_124 1
x_1_125 3.3483161379490048e+02
s_1_125 0
z_1_125 9.9665168386205094e-01
x_1_126 3.3186880701547489e+02
s_1_126 0
z_1_126 9.9668131192984522e-01
x_1_127 3.3264723984058946e+02
s_1_127 0
z_1_127 9.9667352760159411e-01
x_1_128 0
s_1_128 7.0562745864117460e-01
z_1_128 1
x_1_129 4.9999296560852788e+04
s_1_129 5.0000703439147204e+04
z_1_129 5.0000703439147209e-01
x_1_130 4.9999253008313673e+04
s_1_130 5.0000746991686327e+04
z_1_130 5.0000746991686329e-01
x_1_131 3.3577548804075923e+02
s_1_131 0
z_1_131 9.9664224511959243e-01
x_1_132 3.3518398114200681e+02
s_1_132 0
z_1_132 9.9664816018857993e-01
x_1_133 0
s_1_133 1.5346677407796960e+00
z_1_133 1
x_1_134 3.3195629137381911e+02
s_1_134 0
z_1_134 9.9668043708626175e-01
x_1_135 4.9999665851774043e+04
s_1_135 5.0000334148225957e+04
z_1_135 5.0000334148225956e-01
x_1_136 3.3490863402748073e+02
s_1_136 0
z_1_136 9.9665091365972525e-01
x_1_137 0
s_1_137 1.1044839801324997e+00
z_1_137 1
x_1_138 0
s_1_138 1.6892873574979603e+00
z_1_138 1
x_1_139 3.3390705171134323e+02
s_1_139 0
z_1_139 9.9666092948288654e-01
x_1_140 3.3312203143793158e+02
s_1_140 0
z_1_140 9.9666877968562073e-01
x_1_141 332.586710512609
s_1_141 0
z_1_141 9.9667413289487394e-01
x_1_142 0
s_1_142 6.9645271292756661e-01
z_1_142 1
x_1_143 3.3389953136316035e+02
s_1_143 0
z_1_143 9.9666100468636842e-01
x_1_144 4.9999367849488975e+04
s_1_144 5.0000632150511025e+04
z_1_144 5.0000632150511026e-01
x_1_145 0
s_1_145 1.2863390595593955e+00
z_1_145 1
x_1_146 334.871641406804
s_1_146 0
z_1_146 0.996651283585932
x_1_147 0
s_1_147 1.0220683352818014e+00
z_1_147 1
x_1_148 3.2664868363273854e+02
s_1_148 0
z_1_148 9.9673351316367265e-01
x_1_149 0
s_1_149 5.7004035508725792e-01
z_1_149 1
x_1_150 0
s_1_150 1.2030118674301775e+00
z_1_150 1
x_1_151 0
s_1_151 1.5707157272845507e+00
z_1_151 1
x_1_152 0
s_1_152 5.8267133296612883e-01
z_1_152 1
x_1_153 0
s_1_153 7.0396006101509556e-01
z_1_153 1
x_1_154 3.3520419177412987e+02
s_1_154 0
z_1_154 9.9664795808225870e-01
x_1_155 0
s_1_155 1.3499824600012289e+00
z_1_155 1
x_1_156 0
s_1_156 1.2286673677735962e+00
z_1_156 1
x_1_157 3.3044665108250047e+02
s_1_157 0
z_1_157 9.9669553348917506e-01
x_1_158 3.3349395500110404e+02
s_1_158 0
z_1_158 9.9666506044998893e-01
x_1_159 3.3276734482869506e+02
s_1_159 0
z_1_159 0.996672326551713
x_2_0 1.5797019995669150e+05
